TSPLib/instances/tsp_40.tsp
NAME: tsp_40
TYPE: TSP
DIMENSION: 40
EDGE_WEIGHT_TYPE: EUC_2D
NODE_COORD_SECTION
1 34 217
2 62 84
3 78 129
4 51 288
5 26 121
6 5 394
7 83 98
8 75 26
9 33 43
10 38 200
11 92 1
12 43 282
13 31 372
14 98 118
15 96 157
16 33 392
17 75 187
18 87 316
19 76 262
20 77 375
21 47 210
22 80 19
23 89 221
24 8 95
25 44 122
26 63 382
27 32 93
28 77 71
29 9 377
30 32 237
31 91 133
32 26 0
33 17 371
34 98 122
35 64 290
36 74 9
37 9 171
38 98 236
39 33 193
40 68 169
EOF
